30
299
8
56
28
89
41
28
25
33
40
0 1
0 4
0 5
0 7
0 8
0 9
0 12
0 14
0 16
0 17
0 19
0 20
0 22
0 23
0 24
0 25
0 28
0 29
1 2
1 3
1 5
1 6
1 7
1 9
1 10
1 11
1 13
1 14
1 15
1 16
1 17
1 18
1 19
1 21
1 22
1 23
1 24
1 25
1 27
1 29
2 3
2 4
2 5
2 6
2 7
2 8
2 10
2 12
2 13
2 14
2 15
2 20
2 21
2 23
2 25
2 27
2 28
2 29
3 4
3 6
3 7
3 8
3 9
3 11
3 12
3 16
3 23
3 24
3 25
3 26
3 27
3 29
4 5
4 6
4 7
4 8
4 9
4 11
4 12
4 13
4 15
4 16
4 17
4 18
4 20
4 21
4 22
4 23
4 24
4 25
4 26
4 27
4 29
5 8
5 9
5 10
5 11
5 13
5 15
5 16
5 17
5 19
5 20
5 21
5 22
5 23
5 24
5 26
5 27
5 28
5 29
6 7
6 8
6 10
6 11
6 12
6 13
6 14
6 15
6 16
6 17
6 18
6 19
6 20
6 21
6 23
6 24
6 25
6 26
6 29
7 8
7 9
7 11
7 12
7 13
7 14
7 15
7 16
7 17
7 18
7 19
7 20
7 21
7 22
7 24
7 25
7 26
7 27
7 29
8 9
8 12
8 14
8 15
8 16
8 18
8 19
8 22
8 23
8 25
8 26
8 27
8 29
9 10
9 11
9 12
9 14
9 15
9 17
9 19
9 21
9 23
9 24
9 25
9 26
9 28
9 29
10 13
10 14
10 16
10 17
10 18
10 20
10 21
10 22
10 23
10 25
10 26
10 29
11 12
11 13
11 14
11 15
11 17
11 18
11 19
11 20
11 22
11 23
11 24
11 26
11 27
11 29
12 14
12 15
12 16
12 17
12 18
12 21
12 22
12 23
12 24
12 26
12 27
13 14
13 15
13 16
13 17
13 18
13 21
13 22
13 26
13 28
14 16
14 17
14 18
14 19
14 20
14 22
14 26
14 28
14 29
15 16
15 17
15 19
15 22
15 23
15 24
15 27
15 29
16 17
16 21
16 22
16 23
16 24
16 25
16 26
16 28
17 21
17 23
17 24
17 26
18 19
18 20
18 21
18 22
18 23
18 25
18 26
18 27
18 28
18 29
19 22
19 23
19 25
19 26
19 27
19 28
19 29
20 21
20 22
20 24
20 25
20 26
20 27
20 29
21 22
21 24
21 27
21 29
22 23
22 24
22 25
22 26
22 27
22 28
22 29
23 24
23 27
23 28
24 25
24 26
24 27
24 28
25 27
25 28
25 29
27 28
27 29
28 29
4 28 3 11
2 8 1 13
24 21 27 6
25 5 14 10
9 22 15 18
16 12 19 26
29 23 7 0
17 20
